data/solutions/planning/wellformed/moderate/sequential/wellformed_moderate_instance10_cplex.sol
Elapsed time: 0.05
Nodes explored: -
Nodes left: -
Relative gap: -
Upper bound: 36155.0
Lower bound: -
C[0]=5165.0
C[1]=5165.0
C[2]=5165.0
y[0]=2
y[1]=1
y[2]=0
y[3]=1
y[4]=0
y[5]=0
y[6]=0
y[7]=2
y[8]=2
y[9]=0
y[10]=2
y[11]=2
y[12]=2
y[13]=1
y[14]=1
y[15]=2
y[16]=1
y[17]=0
y[18]=1
y[19]=0
y[20]=0
y[21]=2
y[22]=1
y[23]=1
y[24]=0
y[25]=0
y[26]=1
y[27]=0
y[28]=2
y[29]=2
