data/solutions/planning/wellformed/moderate/sequential/wellformed_moderate_instance10_cplex.log
Found incumbent of value 15495.000000 after 0.00 sec. (0.01 ticks)
Tried aggregator 2 times.
Aggregator did 2 substitutions.
Reduced MIP has 33 rows, 91 columns, and 183 nonzeros.
Reduced MIP has 90 binaries, 0 generals, 0 SOSs, and 0 indicators.
Presolve time = 0.00 sec. (0.22 ticks)
Probing fixed 0 vars, tightened 2 bounds.
Probing time = 0.00 sec. (0.09 ticks)
Tried aggregator 1 time.
Reduced MIP has 33 rows, 91 columns, and 183 nonzeros.
Reduced MIP has 90 binaries, 1 generals, 0 SOSs, and 0 indicators.
Presolve time = 0.00 sec. (0.12 ticks)
Probing time = 0.00 sec. (0.06 ticks)
Clique table members: 30.
MIP emphasis: balance optimality and feasibility.
MIP search method: dynamic search.
Parallel mode: none, using 1 thread.
Root relaxation solution time = 0.00 sec. (0.08 ticks)

        Nodes                                         Cuts/
   Node  Left     Objective  IInf  Best Integer    Best Bound    ItCnt     Gap

*     0+    0                        15495.0000        0.0000           100.00%
      0     0     5165.0000     3    15495.0000     5165.0000        3   66.67%
*     0+    0                         5269.0000     5165.0000             1.97%
      0     0     5165.0000     4     5269.0000       Cuts: 7        8    1.97%
      0     0     5165.0000    10     5269.0000     Covers: 2       12    1.97%
      0     2     5165.0000     3     5269.0000     5165.0000       12    1.97%
Elapsed time = 0.01 sec. (2.49 ticks, tree = 0.01 MB, solutions = 2)
*    10+   10                         5198.0000     5165.0000             0.63%
*    25    20      integral     0     5193.0000     5165.0000       44    0.54%
*    59    50      integral     0     5189.0000     5165.0000       98    0.46%
*    90+   75                         5172.0000     5165.0000             0.14%
*   220+  149                         5170.0000     5165.0000             0.10%
*   320+  179                         5167.0000     5165.0000             0.04%
*   320+    1                         5165.0000     5165.0000             0.00%

Cover cuts applied:  26

Root node processing (before b&c):
  Real time             =    0.01 sec. (2.49 ticks)
Sequential b&c:
  Real time             =    0.04 sec. (22.43 ticks)
                          ------------
Total (root+branch&cut) =    0.05 sec. (24.92 ticks)
2 of 9 MIP starts provided solutions.
MIP start 'm1' defined initial solution with objective 5165.0000.
Tried aggregator 2 times.
MIP Presolve eliminated 1 rows and 0 columns.
Aggregator did 1 substitutions.
Reduced MIP has 34 rows, 92 columns, and 185 nonzeros.
Reduced MIP has 90 binaries, 0 generals, 0 SOSs, and 0 indicators.
Presolve time = 0.00 sec. (0.19 ticks)
Probing time = 0.00 sec. (0.06 ticks)
Cover probing fixed 0 vars, tightened 2 bounds.
Tried aggregator 1 time.
Reduced MIP has 34 rows, 92 columns, and 185 nonzeros.
Reduced MIP has 90 binaries, 2 generals, 0 SOSs, and 0 indicators.
Presolve time = 0.00 sec. (0.12 ticks)
Probing time = 0.00 sec. (0.05 ticks)
Clique table members: 30.
MIP emphasis: balance optimality and feasibility.
MIP search method: dynamic search.
Parallel mode: none, using 1 thread.
Root relaxation solution time = 0.00 sec. (0.14 ticks)

        Nodes                                         Cuts/
   Node  Left     Objective  IInf  Best Integer    Best Bound    ItCnt     Gap

*     0+    0                         5165.0000        0.0000           100.00%
      0     0        cutoff           5165.0000                     45    0.00%

Root node processing (before b&c):
  Real time             =    0.00 sec. (0.79 ticks)
Sequential b&c:
  Real time             =    0.00 sec. (0.00 ticks)
                          ------------
Total (root+branch&cut) =    0.00 sec. (0.79 ticks)
1 of 1 MIP starts provided solutions.
MIP start 'm1' defined initial solution with objective 5165.0000.
Tried aggregator 2 times.
MIP Presolve eliminated 3 rows and 0 columns.
Aggregator did 1 substitutions.
Reduced MIP has 34 rows, 92 columns, and 185 nonzeros.
Reduced MIP has 90 binaries, 0 generals, 0 SOSs, and 0 indicators.
Presolve time = 0.00 sec. (0.19 ticks)
Probing time = 0.00 sec. (0.06 ticks)
Cover probing fixed 0 vars, tightened 2 bounds.
Tried aggregator 1 time.
Reduced MIP has 34 rows, 92 columns, and 185 nonzeros.
Reduced MIP has 90 binaries, 2 generals, 0 SOSs, and 0 indicators.
Presolve time = 0.00 sec. (0.12 ticks)
Probing time = 0.00 sec. (0.05 ticks)
Clique table members: 30.
MIP emphasis: balance optimality and feasibility.
MIP search method: dynamic search.
Parallel mode: none, using 1 thread.
Root relaxation solution time = 0.00 sec. (0.12 ticks)

        Nodes                                         Cuts/
   Node  Left     Objective  IInf  Best Integer    Best Bound    ItCnt     Gap

*     0+    0                         5165.0000        0.0000           100.00%
      0     0        cutoff           5165.0000                     41    0.00%

Root node processing (before b&c):
  Real time             =    0.00 sec. (0.76 ticks)
Sequential b&c:
  Real time             =    0.00 sec. (0.00 ticks)
                          ------------
Total (root+branch&cut) =    0.00 sec. (0.76 ticks)
